&PROJWFC
 prefix='test',
 outdir='/home/jesus/Documentos/Nanociencia_DFT',
 ngauss = 1,
 degauss = 0.01,
 DeltaE = 0.05,
/ 